140260
18,49,67,98,34,74,62,31,6,52,83,32,81,71,50,99,44,24,61,85,45,76,5,68,97,105,7,96,54,28,29,4,51,64,30,12,87,39,55,19,15,63,89,16,20,21,1,72,47,84,35,70,53,94,66,40,10,103,37,104,100,2,69,36,38,48,17,93,77,95,59,90,78,42,14,3,102,60,46,13,25,33,73,101,23,0,86,43,65,58,9,26,27,57,75,82,56,79,88,92,11,22,91,8,41,80
